10	6	3.55
2 5 1 1 2 1 3 9 4 3 6 9 5 1 6 2 7 3 8 4 5 6 8
2 4 1 3 2 7 4 4 6 9 6 1 3 2 2 3 1 4 6 5 1 6 1
2 6 1 7 2 9 3 2 4 2 5 6 6 1 6 1 9 2 8 3 4 4 6 5 6 6 7
2 1 1 4 2 1 1 5 3
2 3 1 9 2 8 6 2 6 1 1 2 8 3 9 4 7 5 2 6 4
2 1 2 6 2 3 3 6 9
2 5 1 3 2 4 4 5 5 7 6 3 2 4 7 5 9
2 1 5 1 4 1 3 3 2 4 4 5 6
2 1 4 9 5 1 5 2 7 3 5 5 8 6 1
2 1 4 2 5 2 3 3 4 4 4 5 6 6 9
